
List of user-set options:

                                    Name   Value                used
                           compl_inf_tol = 1                     yes
                         constr_viol_tol = 1                     yes
                            dual_inf_tol = 1000                  yes
                           linear_solver = ma97                  yes
                              ma86_small = 1e-30                  no
                                  ma86_u = 0.0001                 no
                              ma97_order = best                  yes
                              ma97_small = 1e-30                 yes
                            ma97_switch1 = at_start              yes
                            ma97_switch2 = od_hd_reuse           yes
                                  ma97_u = 1e-06                 yes
                               ma97_umax = 0.5                   yes
                                max_iter = 2000                  yes
                    max_refinement_steps = 20                    yes
                    min_refinement_steps = 5                     yes
                                 mu_init = 1e-06                 yes
           mu_superlinear_decrease_power = 1.25                  yes
                   nlp_scaling_min_value = 1e-08                 yes
                        option_file_name = Preset_Case:_230_NCP.opt  yes
                             output_file = ./tmp/Preset_Case:_230_NCP.output  yes
                      print_user_options = yes                   yes
        required_infeasibility_reduction = 1                      no
                                     tol = 1e-08                 yes
                   warm_start_bound_frac = 1e-20                 yes
                   warm_start_bound_push = 1e-20                 yes
                   warm_start_init_point = yes                   yes
              warm_start_mult_bound_push = 1e-20                 yes
                warm_start_mult_init_max = 1e+40                 yes
             warm_start_slack_bound_frac = 1e-20                 yes
             warm_start_slack_bound_push = 1e-20                 yes

******************************************************************************
This program contains Ipopt, a library for large-scale nonlinear optimization.
 Ipopt is released as open source code under the Eclipse Public License (EPL).
         For more information visit http://projects.coin-or.org/Ipopt
******************************************************************************

This is Ipopt version 3.12.10, running with linear solver ma97.

Number of nonzeros in equality constraint Jacobian...:   117140
Number of nonzeros in inequality constraint Jacobian.:      213
Number of nonzeros in Lagrangian Hessian.............:    47462

Total number of variables............................:    29971
                     variables with only lower bounds:    11312
                variables with lower and upper bounds:    15132
                     variables with only upper bounds:        0
Total number of equality constraints.................:    29864
Total number of inequality constraints...............:       25
        inequality constraints with only lower bounds:        4
   inequality constraints with lower and upper bounds:        0
        inequality constraints with only upper bounds:       21

iter    objective    inf_pr   inf_du lg(mu)  ||d||  lg(rg) alpha_du alpha_pr  ls
   0 -5.2224955e-02 7.67e-02 6.00e+01  -6.0 0.00e+00    -  0.00e+00 0.00e+00   0
In iteration 0, 2 Slacks too small, adjusting variable bounds
   1 -5.2224955e-02 7.67e-02 6.34e+03  -6.0 7.30e+05  -2.0 1.79e-08 2.95e-15f  1
   2 -5.2224955e-02 7.67e-02 6.34e+03  -6.0 1.16e+03  -2.5 9.78e-05 2.31e-09f  1
   3 -5.2225646e-02 7.67e-02 6.34e+03  -6.0 1.51e+03  -2.1 4.43e-08 3.96e-05f  1
   4 -5.2227494e-02 7.67e-02 6.33e+03  -6.0 1.51e+03  -2.5 3.30e-04 1.39e-04f  1
   5 -5.2229406e-02 7.66e-02 6.33e+03  -6.0 1.50e+03  -2.1 1.42e-04 1.80e-04f  1
   6 -5.2264140e-02 7.29e-02 4.37e+04  -6.0 1.50e+03  -2.6 1.19e-04 5.20e-03f  1
   7 -5.2262239e-02 7.28e-02 4.20e+04  -6.0 1.30e+03  -2.2 1.70e-04 7.74e-05h  1
   8 -5.2228778e-02 7.12e-02 4.47e+04  -6.0 1.25e+03  -2.6 9.57e-05 6.47e-04h  1
   9 -5.2216426e-02 7.03e-02 4.91e+04  -6.0 1.26e+03  -2.2 1.49e-04 4.39e-04h  1
iter    objective    inf_pr   inf_du lg(mu)  ||d||  lg(rg) alpha_du alpha_pr  ls
  10 -5.2202777e-02 6.99e-02 4.92e+04  -6.0 1.21e+03  -2.7 1.56e-04 1.68e-04f  5
  11 -5.2184350e-02 6.89e-02 2.77e+04  -6.0 1.24e+03  -2.3 2.25e-03 5.59e-04h  1
  12 -5.2175217e-02 6.87e-02 2.77e+04  -6.0 1.18e+03  -2.7 2.45e-04 8.01e-05f  6
  13 -5.2147648e-02 6.73e-02 2.80e+04  -6.0 1.22e+03  -2.3 4.51e-03 7.87e-04h  3
  14r-5.2147648e-02 6.73e-02 1.00e+03  -1.1 0.00e+00  -2.8 0.00e+00 3.06e-07R 14
  15r-5.2165297e-02 6.73e-02 1.00e+03  -1.1 1.91e+04    -  6.35e-07 2.49e-07f  1
  16r-5.2165297e-02 6.73e-02 9.99e+02  -1.1 0.00e+00    -  0.00e+00 6.05e-08R  2
  17r-5.2170167e-02 6.73e-02 9.99e+02  -1.1 4.37e+03    -  3.53e-06 3.14e-07f  1
  18 -5.2170218e-02 6.73e-02 4.60e+06  -6.0 5.98e+01    -  6.56e-02 2.40e-05h  1
  19 -5.2176114e-02 6.73e-02 6.82e+07  -6.0 1.36e+03    -  2.56e-05 3.80e-04h  1
iter    objective    inf_pr   inf_du lg(mu)  ||d||  lg(rg) alpha_du alpha_pr  ls
  20 -5.2187476e-02 6.72e-02 6.82e+07  -6.0 1.35e+03    -  2.64e-03 8.01e-04h  1
  21 -5.2278547e-02 6.68e-02 6.77e+07  -6.0 1.34e+03    -  1.43e-03 7.02e-03f  1
  22 -5.2278869e-02 6.67e-02 6.77e+07  -6.0 1.20e+03    -  1.42e-02 2.02e-04h  1
  23 -5.2285495e-02 6.62e-02 6.71e+07  -6.0 1.20e+03    -  1.86e-02 8.53e-03h  1
  24r-5.2285495e-02 6.62e-02 9.99e+02  -1.1 0.00e+00    -  0.00e+00 3.77e-07R  6
  25r-5.2292427e-02 6.62e-02 9.99e+02  -1.1 1.93e+03    -  1.67e-05 1.22e-06f  1
  26r-5.2292427e-02 6.62e-02 9.99e+02  -1.1 0.00e+00    -  0.00e+00 1.78e-07R  2
  27r-5.2294278e-02 6.62e-02 9.99e+02  -1.1 3.13e+03    -  1.07e-05 1.74e-07f  1
  28 -5.2294306e-02 6.62e-02 6.93e+06  -6.0 5.70e+01    -  8.17e-02 1.33e-05h  1
  29r-5.2294306e-02 6.62e-02 1.00e+03  -1.1 0.00e+00    -  0.00e+00 1.75e-07R  2
iter    objective    inf_pr   inf_du lg(mu)  ||d||  lg(rg) alpha_du alpha_pr  ls
  30r-5.2327648e-02 6.62e-02 1.11e+03  -1.1 2.38e+05    -  1.12e-05 1.09e-06f  1
  31r-5.2327648e-02 6.62e-02 9.99e+02  -1.1 0.00e+00    -  0.00e+00 2.88e-07R  2
  32r-5.2330624e-02 6.62e-02 1.22e+03  -1.1 2.78e+03    -  2.01e-05 3.30e-07f  1
  33 -5.2330688e-02 6.62e-02 1.71e+07  -6.0 5.60e+01    -  1.05e-01 2.51e-05h  1
  34 -5.2326648e-02 6.61e-02 8.78e+08  -6.0 1.09e+03    -  2.57e-05 1.32e-03h  1
  35 -5.2321529e-02 6.60e-02 8.76e+08  -6.0 1.11e+03    -  2.92e-02 1.65e-03h  1
  36 -5.2320484e-02 6.56e-02 8.71e+08  -6.0 1.09e+03    -  2.35e-03 5.51e-03h  4
  37 -5.2311249e-02 6.58e-02 8.68e+08  -6.0 1.03e+03    -  1.08e-02 3.99e-03h  4
  38 -5.2297879e-02 6.60e-02 8.64e+08  -6.0 9.89e+02    -  4.27e-02 4.07e-03h  4
  39 -5.2267247e-02 6.61e-02 8.58e+08  -6.0 9.51e+02    -  2.32e-02 7.33e-03h  4
iter    objective    inf_pr   inf_du lg(mu)  ||d||  lg(rg) alpha_du alpha_pr  ls
  40 -5.2223915e-02 6.61e-02 8.51e+08  -6.0 8.93e+02    -  6.03e-02 8.61e-03h  4
  41 -5.2181361e-02 6.60e-02 8.45e+08  -6.0 8.33e+02    -  5.28e-02 6.70e-03h  5
  42 -5.2148971e-02 6.59e-02 8.41e+08  -6.0 7.92e+02    -  8.65e-02 4.37e-03h  6
  43 -5.2101747e-02 6.56e-02 8.37e+08  -6.0 7.70e+02    -  7.72e-02 5.27e-03h  6
  44 -5.2047678e-02 6.54e-02 8.33e+08  -6.0 7.43e+02    -  1.02e-01 5.21e-03h  5
  45 -5.1996174e-02 6.52e-02 8.29e+08  -6.0 7.20e+02    -  9.93e-02 4.19e-03h  4
  46 -5.1736866e-02 6.42e-02 8.14e+08  -6.0 7.06e+02    -  1.34e-01 1.83e-02w  1
  47 -4.8732111e-02 2.33e+00 6.68e+08  -6.0 6.30e+02    -  1.28e-01 1.79e-01w  1
  48 -4.8721823e-02 2.33e+00 6.68e+08  -6.0 1.95e+02    -  3.36e-01 9.38e-04w  1
  49 -5.1963760e-02 6.50e-02 8.27e+08  -6.0 2.03e+02    -  1.34e-01 2.29e-03h  3
iter    objective    inf_pr   inf_du lg(mu)  ||d||  lg(rg) alpha_du alpha_pr  ls
  50 -5.1938566e-02 6.50e-02 8.26e+08  -6.0 7.08e+02    -  1.02e-01 1.50e-03h  4
  51 -5.1910765e-02 6.49e-02 8.25e+08  -6.0 7.18e+02    -  1.22e-01 1.47e-03h  5
  52 -5.1880323e-02 6.48e-02 8.24e+08  -6.0 7.39e+02    -  1.22e-01 1.42e-03h  7
  53 -5.1849340e-02 6.47e-02 8.22e+08  -6.0 7.71e+02    -  1.37e-01 1.30e-03h  8
  54 -5.1809143e-02 6.46e-02 8.21e+08  -6.0 8.27e+02    -  1.19e-01 1.53e-03h  8
  55 -5.1785390e-02 6.46e-02 8.21e+08  -6.0 8.92e+02    -  1.44e-01 8.35e-04h  9
  56 -5.1755810e-02 6.45e-02 8.20e+08  -6.0 1.01e+03    -  1.22e-01 9.58e-04h  9
  57 -5.1719810e-02 6.44e-02 8.19e+08  -6.0 1.14e+03    -  2.58e-01 1.10e-03h  9
  58 -5.1695689e-02 6.44e-02 8.18e+08  -6.0 1.56e+03    -  9.26e-02 6.60e-04h 10
  59 -3.8744655e-02 1.62e+01 5.37e+08  -6.0 1.75e+03    -  2.41e-01 3.43e-01w  1
iter    objective    inf_pr   inf_du lg(mu)  ||d||  lg(rg) alpha_du alpha_pr  ls
  60 -3.8744099e-02 1.62e+01 5.37e+08  -6.0 7.49e+02    -  2.04e-02 1.32e-04w  1
  61 -3.8903525e-02 1.20e+01 4.02e+08  -6.0 5.27e+02    -  7.15e-07 2.52e-01w  1
  62 -5.1670394e-02 6.44e-02 8.18e+08  -6.0 3.28e+02    -  2.41e-01 6.70e-04h  9
  63 -5.1643763e-02 6.43e-02 8.17e+08  -6.0 2.44e+03    -  9.76e-02 6.46e-04h 10
  64 -5.1617013e-02 6.43e-02 8.17e+08  -6.0 2.77e+03    -  2.48e-01 6.28e-04h 10
  65 -5.1589696e-02 6.42e-02 8.16e+08  -6.0 3.78e+03    -  9.89e-02 5.84e-04h 10
  66 -5.1561896e-02 6.42e-02 8.16e+08  -6.0 4.18e+03    -  2.70e-01 5.73e-04h 10
  67 -5.1547147e-02 6.42e-02 8.16e+08  -6.0 5.39e+03    -  9.77e-02 2.74e-04h 11
  68 -5.1531987e-02 6.42e-02 8.15e+08  -6.0 5.75e+03    -  3.04e-01 2.72e-04h 11
  69 -5.1519920e-02 6.42e-02 8.15e+08  -6.0 6.86e+03    -  9.50e-02 1.94e-04h 11
iter    objective    inf_pr   inf_du lg(mu)  ||d||  lg(rg) alpha_du alpha_pr  ls
  70 -5.1509711e-02 6.41e-02 8.15e+08  -6.0 7.07e+03    -  2.08e-01 1.61e-04h 11
  71 -5.1497834e-02 6.41e-02 8.15e+08  -6.0 7.48e+03    -  1.12e-01 1.74e-04h 10
  72 -4.7738092e-02 2.21e+00 7.74e+08  -6.0 7.60e+03    -  9.59e-02 5.08e-02w  1
  73 -4.7736238e-02 2.21e+00 7.73e+08  -6.0 5.35e+03    -  2.57e-01 4.05e-05w  1
  74 -4.3344749e-02 2.18e+01 6.52e+08  -6.0 6.27e+03    -  2.92e-01 1.58e-01w  1
  75 -5.1483148e-02 6.41e-02 8.15e+08  -6.0 1.76e+02  -3.3 9.59e-02 1.98e-04h  8
  76 -5.1474192e-02 6.41e-02 8.15e+08  -6.0 7.64e+03    -  5.18e-02 9.94e-05h  9
  77 -5.1457559e-02 6.41e-02 8.15e+08  -6.0 7.74e+03    -  4.57e-02 1.74e-04h  8
  78 -5.1441370e-02 6.41e-02 8.14e+08  -6.0 8.02e+03    -  6.99e-02 1.67e-04h  8
  79 -5.1433235e-02 6.41e-02 8.14e+08  -6.0 8.49e+03    -  3.74e-02 9.15e-05h  9
iter    objective    inf_pr   inf_du lg(mu)  ||d||  lg(rg) alpha_du alpha_pr  ls
  80 -5.1424674e-02 6.41e-02 8.14e+08  -6.0 8.76e+03    -  1.04e-01 1.12e-04h  9
  81 -5.1415037e-02 6.41e-02 8.14e+08  -6.0 9.51e+03    -  1.01e-01 1.99e-04h  9
  82 -5.1405262e-02 6.41e-02 8.14e+08  -6.0 1.02e+04    -  1.50e-01 3.33e-04h  9
  83 -5.1404483e-02 6.40e-02 8.14e+08  -6.0 1.11e+04    -  1.67e-01 1.43e-04h 11
  84 -5.3858343e-02 8.63e+00 7.61e+08  -6.0 1.40e+04    -  8.90e-02 6.50e-02h  1
  85r-5.3858343e-02 8.63e+00 1.00e+03   0.7 0.00e+00    -  0.00e+00 2.51e-07R  2
  86r-5.3879458e-02 8.62e+00 1.34e+03   0.7 2.44e+04    -  1.70e-07 9.28e-07f  1
  87 -5.3879455e-02 8.62e+00 3.67e+04  -6.0 1.66e+02    -  2.04e-02 3.90e-06h  2
  88 -5.3877927e-02 8.62e+00 3.00e+06  -6.0 3.69e+02    -  4.80e-06 3.91e-04h  1
  89 -5.3845918e-02 8.54e+00 2.97e+06  -6.0 3.86e+02    -  3.36e-02 8.62e-03h  1
iter    objective    inf_pr   inf_du lg(mu)  ||d||  lg(rg) alpha_du alpha_pr  ls
  90 -5.3748331e-02 8.25e+00 2.87e+06  -6.0 3.76e+02    -  9.12e-03 3.39e-02h  1
  91 -5.3670696e-02 8.09e+00 2.82e+06  -6.0 3.29e+02    -  1.44e-01 1.97e-02h  1
  92 -5.2680654e-02 6.44e+00 2.24e+06  -6.0 3.11e+02    -  8.74e-02 2.04e-01h  1
  93 -5.1909558e-02 4.09e+00 1.42e+06  -6.0 1.52e+02    -  2.29e-01 3.65e-01h  1
  94r-5.1909558e-02 4.09e+00 1.00e+03   0.3 0.00e+00    -  0.00e+00 3.18e-07R  5
  95r-5.1900039e-02 4.09e+00 8.86e+03   0.3 1.10e+04    -  2.34e-06 2.54e-07f  1
  96 -5.1899936e-02 4.09e+00 4.72e+06  -6.0 6.13e+01    -  1.17e-01 1.22e-04h  1
  97 -5.1898588e-02 4.09e+00 1.31e+07  -6.0 2.50e+02    -  1.31e-04 3.62e-04h  1
  98 -5.1887292e-02 4.07e+00 1.30e+07  -6.0 6.87e+01    -  5.81e-02 5.37e-03h  1
  99 -5.1663293e-02 3.98e+00 1.27e+07  -6.0 1.10e+02    -  5.83e-03 2.17e-02h  1
iter    objective    inf_pr   inf_du lg(mu)  ||d||  lg(rg) alpha_du alpha_pr  ls
 100 -5.1600466e-02 3.95e+00 1.27e+07  -6.0 1.06e+02    -  8.75e-03 6.05e-03h  1
 101 -5.1231748e-02 3.28e+00 1.05e+07  -6.0 6.77e+01    -  8.94e-03 1.71e-01h  1
 102 -5.0854081e-02 2.62e+00 8.39e+06  -6.0 6.11e+01    -  8.47e-03 2.01e-01h  1
 103 -5.0663082e-02 2.30e+00 7.36e+06  -6.0 5.25e+01    -  9.51e-02 1.23e-01h  3
 104 -5.0566502e-02 2.13e+00 6.83e+06  -6.0 4.46e+01    -  3.10e-02 7.15e-02h  4
 105 -5.0560192e-02 2.12e+00 6.80e+06  -6.0 4.09e+01    -  8.71e-02 4.59e-03h  8
 106 -5.0557042e-02 2.12e+00 6.78e+06  -6.0 4.08e+01    -  7.08e-02 2.34e-03h  9
 107 -5.0556648e-02 2.12e+00 6.78e+06  -6.0 4.07e+01    -  1.83e-01 2.97e-04h 12
 108 -4.9743217e-02 7.66e-01 2.45e+06  -6.0 4.10e+01    -  5.42e-02 6.38e-01h  1
 109 -4.9491934e-02 5.85e-02 5.08e+05  -6.0 1.23e+01    -  6.32e-01 1.00e+00h  1
iter    objective    inf_pr   inf_du lg(mu)  ||d||  lg(rg) alpha_du alpha_pr  ls
 110 -4.9610760e-02 1.60e-02 8.97e+04  -6.0 4.32e+00    -  4.91e-01 1.00e+00h  1
 111 -4.9588511e-02 1.36e-02 1.35e+06  -6.0 7.63e+00    -  4.99e-01 1.51e-01h  1
 112r-4.9588511e-02 1.36e-02 1.00e+03  -2.2 0.00e+00    -  0.00e+00 3.12e-07R  4
 113r-4.9600497e-02 1.09e-02 9.99e+02  -2.2 9.77e+02    -  6.24e-04 3.15e-04f  1
 114 -4.9598839e-02 9.10e-03 1.44e+07  -6.0 2.87e-01    -  2.15e-02 1.67e-01h  1
 115 -4.9598379e-02 8.21e-03 1.38e+07  -6.0 2.15e-01    -  1.67e-01 9.71e-02h  1
 116 -4.9597881e-02 5.79e-03 9.76e+06  -6.0 1.95e-01    -  6.77e-01 2.95e-01h  1
 117 -4.9619771e-02 5.19e-05 9.22e+01  -6.0 1.52e-01    -  7.46e-01 1.00e+00h  1
 118 -4.9733264e-02 2.78e-04 4.40e+01  -6.0 3.92e-01    -  5.60e-01 1.00e+00h  1
 119 -5.0202661e-02 3.01e-03 2.70e+01  -6.0 1.84e+00    -  3.87e-01 1.00e+00h  1
iter    objective    inf_pr   inf_du lg(mu)  ||d||  lg(rg) alpha_du alpha_pr  ls
 120 -5.0897715e-02 3.84e-03 1.06e+01  -6.0 1.74e+00    -  6.06e-01 1.00e+00h  1
 121 -5.2670928e-02 1.82e-03 6.32e+00  -6.0 4.48e+00    -  4.06e-01 1.00e+00H  1
 122 -5.5751826e-02 5.51e-02 1.28e+01  -6.0 7.61e+00    -  2.76e-01 1.00e+00h  1
 123 -6.0100350e-02 1.25e-01 1.39e+01  -6.0 1.08e+01    -  6.89e-01 1.00e+00h  1
 124 -6.2370123e-02 1.75e-01 6.60e+00  -6.0 3.93e+01    -  2.67e-01 1.68e-01h  1
 125 -7.0070908e-02 1.63e+00 1.79e+01  -6.0 4.81e+01    -  4.71e-01 4.88e-01f  1
 126 -7.4185739e-02 1.84e+00 7.12e+02  -6.0 1.20e+02    -  4.96e-01 2.09e-01h  1
 127 -8.0904574e-02 2.98e+00 6.11e+02  -6.0 1.24e+02    -  5.23e-01 2.79e-01h  1
 128 -8.3901132e-02 2.96e+00 6.10e+02  -6.0 2.04e+02    -  4.96e-01 1.39e-01h  1
 129 -8.8542775e-02 2.64e+00 4.61e+02  -6.0 3.87e+02    -  3.48e-01 2.59e-01h  1
iter    objective    inf_pr   inf_du lg(mu)  ||d||  lg(rg) alpha_du alpha_pr  ls
 130 -9.3404804e-02 1.97e+00 3.18e+02  -6.0 9.59e+02    -  9.44e-02 2.04e-01h  1
 131 -9.3384891e-02 1.90e+00 3.39e+04  -6.0 6.53e+00  -3.7 2.19e-03 3.65e-02h  1
 132 -9.5484617e-02 1.58e+00 3.75e+04  -6.0 5.94e+02    -  3.62e-01 1.88e-01h  1
 133 -9.7160945e-02 1.41e+00 3.16e+04  -6.0 9.85e+02    -  1.59e-01 1.38e-01h  1
 134 -1.0076936e-01 4.37e+00 1.36e+04  -6.0 1.34e+03    -  6.49e-01 3.24e-01h  1
 135 -1.0076267e-01 4.17e+00 1.30e+04  -6.0 4.73e+00  -4.2 5.49e-02 4.43e-02h  1
 136 -1.0075433e-01 3.85e+00 1.20e+04  -6.0 4.13e+00  -4.7 4.41e-02 7.85e-02h  1
 137 -1.0075173e-01 2.99e+00 9.31e+03  -6.0 5.92e+00  -5.2 1.58e-01 2.22e-01h  1
 138 -1.0095358e-01 1.75e+00 5.45e+03  -6.0 7.53e+00  -5.6 7.85e-01 4.15e-01h  1
 139 -1.0110136e-01 1.55e+00 4.82e+03  -6.0 1.34e+01  -6.1 8.06e-01 1.15e-01h  1
iter    objective    inf_pr   inf_du lg(mu)  ||d||  lg(rg) alpha_du alpha_pr  ls
 140 -1.0165928e-01 1.05e+00 3.27e+03  -6.0 3.30e+01  -6.6 9.99e-01 3.22e-01h  1
 141 -1.0183434e-01 9.76e-01 3.04e+03  -6.0 5.01e+01  -7.1 6.59e-01 7.07e-02h  1
 142 -1.0354817e-01 3.80e-01 1.03e+03  -6.0 7.59e+01  -7.6 7.18e-01 6.60e-01h  1
 143 -1.0507033e-01 1.46e+00 5.80e+02  -6.0 5.18e+02  -8.0 3.83e-01 4.38e-01h  1
 144 -1.0778180e-01 3.93e+00 1.98e+03  -6.0 6.36e+02  -8.5 3.33e-01 6.92e-01h  1
 145 -1.0806780e-01 3.84e+00 2.17e+03  -6.0 3.24e+03  -8.1 5.91e-02 2.34e-02h  1
 146 -1.0820784e-01 1.52e+00 2.56e+04  -6.0 1.98e+01  -5.9 1.10e-01 6.05e-01h  1
 147 -1.0823540e-01 1.33e+00 1.31e+04  -6.0 8.15e+00  -6.3 2.85e-01 4.41e-01h  1
 148 -1.0829968e-01 4.80e-02 1.78e+03  -6.0 4.75e+00  -5.9 4.79e-01 1.00e+00h  1
 149 -1.0834264e-01 6.92e-02 1.10e+01  -6.0 7.45e+00  -6.4 1.00e+00 1.00e+00h  1
iter    objective    inf_pr   inf_du lg(mu)  ||d||  lg(rg) alpha_du alpha_pr  ls
 150 -1.0837592e-01 6.18e-02 2.49e+00  -6.0 1.33e+01  -6.9 3.42e-01 4.02e-01h  1
 151 -1.0858919e-01 2.79e+00 3.58e+01  -6.0 4.00e+01  -7.3 3.67e-01 1.00e+00h  1
 152 -1.0881000e-01 2.65e+00 1.82e+01  -6.0 1.17e+02  -7.8 5.04e-01 3.27e-01h  1
 153 -1.1003949e-01 1.32e+00 7.49e+00  -6.0 3.37e+02  -8.3 5.90e-01 5.54e-01h  1
 154 -1.1089208e-01 1.19e+00 1.10e+04  -6.0 8.75e+02  -8.8 7.83e-01 2.13e-01h  1
 155 -1.1272122e-01 1.69e+00 3.86e+02  -6.0 2.52e+02  -8.3 6.93e-01 1.00e+00h  1
 156 -1.1317295e-01 7.58e-01 2.95e+02  -6.0 1.94e+02  -7.9 4.15e-01 3.97e-01h  1
 157 -1.1344227e-01 4.91e-02 4.98e+01  -6.0 4.56e+01  -7.5 9.26e-01 1.00e+00h  1
 158 -1.1356083e-01 6.03e-02 7.75e-01  -6.0 1.72e+01  -7.1 1.00e+00 1.00e+00h  1
 159 -1.1361243e-01 2.67e-02 1.82e-01  -6.0 6.69e+00  -6.6 1.00e+00 1.00e+00h  1
iter    objective    inf_pr   inf_du lg(mu)  ||d||  lg(rg) alpha_du alpha_pr  ls
 160 -1.1379461e-01 6.26e-01 1.82e+01  -6.0 4.36e+01  -7.1 5.62e-01 1.00e+00h  1
 161 -1.1412472e-01 7.63e-01 2.01e+00  -6.0 2.90e+01  -6.7 1.00e+00 8.83e-01h  1
 162 -1.1458669e-01 2.84e+00 6.88e+01  -6.0 4.19e+01  -7.2 2.70e-01 1.00e+00f  1
 163 -1.1487081e-01 1.69e+00 1.25e+02  -6.0 1.47e+02  -6.7 3.04e-01 1.11e-01h  1
 164 -1.1521011e-01 1.74e+00 2.30e+02  -6.0 3.44e+01  -7.2 2.68e-01 7.12e-01h  1
 165 -1.1521418e-01 1.61e+00 7.04e+02  -6.0 1.32e+01  -6.8 8.64e-01 7.82e-02h  1
 166 -1.1538276e-01 1.60e+00 4.21e+01  -6.0 3.11e+01  -7.3 1.00e+00 3.56e-01h  1
 167 -1.1561270e-01 3.42e+00 3.43e+01  -6.0 6.91e+01  -7.7 4.34e-01 2.98e-01h  1
 168 -1.1562291e-01 3.40e+00 3.42e+01  -6.0 1.72e+02  -8.2 1.89e-02 5.79e-03h  1
 169 -1.1557532e-01 2.46e+01 4.02e+01  -6.0 2.12e+03  -8.7 7.35e-03 2.86e-02f  1
iter    objective    inf_pr   inf_du lg(mu)  ||d||  lg(rg) alpha_du alpha_pr  ls
 170 -1.1765614e-01 3.92e+01 3.33e+01  -6.0 9.95e+03  -9.2 4.35e-02 1.35e-01h  1
 171 -1.1782338e-01 3.67e+01 5.65e+01  -6.0 7.43e+02  -8.7 8.86e-02 6.44e-02h  1
 172 -1.1849791e-01 3.44e+01 1.36e+02  -6.0 2.00e+03  -9.2 1.50e-01 7.59e-02h  1
 173 -1.1899598e-01 3.14e+01 1.61e+02  -6.0 9.14e+02  -8.8 3.08e-01 9.14e-02h  1
 174 -1.2102260e-01 2.55e+01 2.76e+02  -6.0 1.33e+03  -9.3 3.83e-01 2.58e-01h  1
 175 -1.2278383e-01 2.54e+01 3.35e+02  -6.0 5.62e+05  -9.8 2.42e-03 1.70e-03h  1
 176 -1.2396889e-01 2.03e+01 1.14e+02  -6.0 1.29e+03  -9.3 1.25e-01 2.32e-01h  1
 177 -1.2414008e-01 2.01e+01 4.00e+02  -6.0 3.84e+03  -9.8 9.14e-02 1.13e-02h  1
 178 -1.2461336e-01 2.15e+01 5.82e+02  -6.0 8.14e+04 -10.3 2.81e-02 2.35e-02h  1
 179 -1.2659662e-01 1.71e+01 1.36e+03  -6.0 3.23e+03  -9.9 5.32e-01 2.40e-01h  1
iter    objective    inf_pr   inf_du lg(mu)  ||d||  lg(rg) alpha_du alpha_pr  ls
 180 -1.2696129e-01 1.48e+01 8.64e+02  -6.0 5.44e+02  -8.5 3.02e-03 1.40e-01h  1
 181 -1.2701277e-01 1.45e+01 1.70e+03  -6.0 3.82e+02  -7.2 5.36e-02 2.29e-02h  1
 182 -1.2709739e-01 1.22e+01 1.88e+03  -6.0 1.74e+02  -7.7 6.59e-02 1.54e-01h  1
 183 -1.2777423e-01 7.98e+00 9.44e+02  -6.0 2.32e+02  -8.2 3.67e-03 3.57e-01h  1
 184 -1.2777375e-01 7.92e+00 9.36e+02  -6.0 1.11e+01  -3.2 4.89e-03 6.34e-03h  1
 185 -1.2777482e-01 7.89e+00 9.30e+02  -6.0 5.57e+01  -3.7 2.68e-03 4.87e-03h  1
 186 -1.2777446e-01 7.88e+00 9.30e+02  -6.0 5.92e+01  -3.3 2.80e-03 1.08e-03h  1
 187 -1.2777397e-01 7.86e+00 9.35e+02  -6.0 5.82e+01  -2.8 9.05e-03 1.75e-03h  1
 188 -1.2776991e-01 7.80e+00 9.21e+02  -6.0 6.52e+01  -3.3 1.19e-03 8.63e-03h  1
 189 -1.2776080e-01 7.69e+00 8.99e+02  -6.0 5.52e+01  -2.9 2.73e-03 1.38e-02f  1
iter    objective    inf_pr   inf_du lg(mu)  ||d||  lg(rg) alpha_du alpha_pr  ls
 190 -1.2775696e-01 7.62e+00 8.89e+02  -6.0 3.87e+01  -2.5 5.32e-03 8.37e-03h  1
 191 -1.2774805e-01 7.57e+00 8.78e+02  -6.0 2.46e+01  -2.0 5.03e-04 6.85e-03h  1
 192 -1.2774443e-01 7.57e+00 8.78e+02  -6.0 8.30e+01  -2.5 2.15e-04 3.62e-04h  1
 193 -1.2774412e-01 7.57e+00 8.82e+02  -6.0 2.34e+01  -2.1 6.04e-03 1.67e-04h  1
 194 -1.2773735e-01 7.56e+00 8.81e+02  -6.0 1.56e+02  -2.6 3.81e-05 5.59e-04h  1
 195 -1.2773517e-01 7.55e+00 8.94e+02  -6.0 2.11e+01  -2.1 2.20e-02 1.51e-03h  1
 196 -1.2771908e-01 7.53e+00 8.90e+02  -6.0 8.58e+01  -2.6 1.29e-03 2.78e-03h  1
 197 -1.2771000e-01 7.46e+00 9.26e+02  -6.0 1.43e+01  -2.2 7.70e-02 1.01e-02h  1
 198 -1.2763893e-01 7.17e+00 8.75e+02  -6.0 2.08e+01  -2.7 8.32e-03 3.78e-02h  1
 199 -1.2742483e-01 5.69e+00 6.04e+02  -6.0 1.57e+01  -3.1 3.22e-02 2.07e-01h  1
iter    objective    inf_pr   inf_du lg(mu)  ||d||  lg(rg) alpha_du alpha_pr  ls
 200 -1.2742484e-01 5.69e+00 6.25e+02  -6.0 1.77e+01  -3.6 5.10e-02 3.70e-05h  1
 201 -1.2743654e-01 5.43e+00 7.12e+02  -6.0 4.59e+00  -3.2 3.69e-01 4.60e-02h  1
 202 -1.2736640e-01 1.71e+00 1.57e+02  -6.0 2.64e+01  -3.7 5.60e-02 6.86e-01h  1
 203 -1.2740358e-01 1.27e+00 1.43e+02  -6.0 1.28e+00  -3.2 6.75e-01 2.56e-01h  1
 204 -1.2743825e-01 4.33e-01 4.70e+01  -6.0 9.52e-01  -3.7 5.16e-01 6.59e-01h  1
 205 -1.2745615e-01 4.48e-03 2.63e+00  -6.0 3.26e-01  -4.2 9.84e-01 1.00e+00h  1
 206 -1.2747867e-01 5.88e-01 1.84e+01  -6.0 7.02e+00  -4.7 6.51e-02 8.23e-01h  1
 207 -1.2749766e-01 4.00e-01 9.04e+00  -6.0 1.56e+00  -5.2 1.00e+00 3.20e-01h  1
 208 -1.2763992e-01 5.10e-02 2.05e+00  -6.0 3.94e+00  -5.6 1.00e+00 9.41e-01f  1
 209 -1.2789825e-01 1.83e-01 4.04e+00  -6.0 6.72e+00  -6.1 1.00e+00 1.00e+00f  1
iter    objective    inf_pr   inf_du lg(mu)  ||d||  lg(rg) alpha_du alpha_pr  ls
 210 -1.2793812e-01 1.70e-01 1.86e+01  -6.0 2.10e+01  -6.6 4.77e-01 7.08e-02h  1
 211 -1.2802143e-01 6.87e-02 1.31e+01  -6.0 5.72e+00  -6.2 6.38e-01 5.80e-01f  1
 212 -1.2824507e-01 2.84e-02 9.17e+00  -6.0 1.72e+01  -6.6 5.23e-01 4.93e-01f  1
 213 -1.2829921e-01 2.00e-02 7.18e+02  -6.0 1.89e+01  -7.1 1.00e+00 3.32e-01f  1
 214 -1.2869784e-01 8.60e-02 7.72e+01  -6.0 5.42e+01  -7.6 6.69e-01 8.28e-01f  1
 215 -1.2956532e-01 6.24e-01 1.27e+01  -6.0 1.51e+02  -8.1 1.00e+00 1.00e+00h  1
 216 -1.2990466e-01 7.00e-01 2.88e+02  -6.0 4.14e+02  -8.5 1.87e-01 2.12e-01h  1
 217 -1.3094342e-01 9.92e-01 1.66e+03  -6.0 5.27e+02  -9.0 1.00e+00 5.63e-01h  1
 218 -1.3232176e-01 1.24e+00 9.30e+02  -6.0 1.34e+03  -9.5 5.81e-01 5.31e-01h  1
 219 -1.3361617e-01 3.27e+00 4.06e+02  -6.0 2.86e+03 -10.0 3.67e-01 3.83e-01h  1
iter    objective    inf_pr   inf_du lg(mu)  ||d||  lg(rg) alpha_du alpha_pr  ls
 220 -1.3360961e-01 3.17e+00 3.78e+04  -6.0 9.16e+01  -5.9 6.25e-03 3.16e-02h  1
 221 -1.3359409e-01 2.95e+00 3.51e+04  -6.0 5.13e+01  -6.4 3.50e-02 6.98e-02h  1
 222 -1.3359743e-01 2.80e+00 3.33e+04  -6.0 2.21e+01  -6.9 1.55e-01 4.99e-02h  1
 223 -1.3367718e-01 2.00e+00 2.39e+04  -6.0 5.65e+01  -7.4 6.59e-02 2.81e-01h  1
 224 -1.3364265e-01 1.07e+00 1.26e+04  -6.0 7.83e+00  -6.9 1.00e+00 4.73e-01h  1
 225 -1.3359824e-01 1.39e-01 3.94e+00  -6.0 4.15e+00  -6.5 1.00e+00 1.00e+00h  1
 226 -1.3361026e-01 5.71e-01 1.00e+01  -6.0 1.12e+01  -7.0 1.00e+00 1.00e+00h  1
 227 -1.3362491e-01 1.05e+00 1.89e+01  -6.0 3.23e+01  -7.5 1.00e+00 7.02e-01h  1
 228 -1.3373678e-01 2.03e-01 8.65e+00  -6.0 8.80e+01  -7.9 1.00e+00 1.00e+00h  1
 229 -1.3393113e-01 6.99e-01 1.34e+01  -6.0 1.77e+02  -8.4 8.93e-01 6.83e-01h  1
iter    objective    inf_pr   inf_du lg(mu)  ||d||  lg(rg) alpha_du alpha_pr  ls
 230 -1.3413050e-01 8.70e-01 7.36e+00  -6.0 3.42e+02  -8.9 3.38e-01 4.71e-01h  1
 231 -1.3458000e-01 7.35e-01 8.65e+00  -6.0 9.64e+02  -9.4 5.02e-01 4.91e-01h  1
 232 -1.3501628e-01 1.90e+00 4.12e+01  -6.0 1.05e+03  -9.9 2.09e-01 4.36e-01h  1
 233 -1.3511347e-01 1.83e+00 4.02e+01  -6.0 2.77e+03 -10.3 2.79e-02 3.99e-02h  1
 234 -1.3526699e-01 1.52e+00 2.40e+01  -6.0 6.40e+02  -9.9 5.01e-01 2.29e-01h  1
 235 -1.3539393e-01 1.25e+00 2.56e+01  -6.0 1.16e+03 -10.4 1.02e-01 1.92e-01h  1
 236 -1.3582919e-01 2.02e+00 1.41e+01  -6.0 5.45e+02 -10.0 5.33e-01 1.00e+00h  1
 237 -1.3582388e-01 4.00e-03 2.88e+02  -6.0 7.42e+00  -5.9 5.20e-02 1.00e+00h  1
 238 -1.3582213e-01 5.36e-04 1.11e-01  -6.0 2.59e+00  -6.4 1.00e+00 1.00e+00h  1
 239 -1.3583629e-01 3.02e-04 8.79e-02  -6.0 4.78e+00  -6.9 1.00e+00 1.00e+00H  1
iter    objective    inf_pr   inf_du lg(mu)  ||d||  lg(rg) alpha_du alpha_pr  ls
 240 -1.3584199e-01 1.21e-03 4.46e-02  -6.0 5.79e+00  -7.4 1.00e+00 1.00e+00h  1
 241 -1.3584952e-01 7.47e-03 2.64e-02  -6.0 1.60e+01  -7.8 1.00e+00 1.00e+00h  1
 242 -1.3584740e-01 6.11e-02 2.88e-01  -6.0 4.59e+01  -8.3 1.00e+00 1.00e+00h  1
 243 -1.3582930e-01 6.12e-01 3.11e+00  -6.0 1.46e+02  -8.8 1.00e+00 1.00e+00h  1
 244 -1.3581694e-01 1.10e+00 5.81e+00  -6.0 6.94e+02  -9.3 3.29e-01 2.12e-01h  1
 245 -1.3582746e-01 5.52e-01 8.67e-01  -6.0 2.56e+02  -9.7 1.00e+00 1.00e+00h  1
 246 -1.3582779e-01 1.38e+00 1.19e+01  -6.0 1.35e+03  -9.3 1.54e-01 1.59e-01h  1
 247 -1.3585499e-01 1.34e+00 1.23e+01  -6.0 3.15e+02  -9.8 1.00e+00 1.00e+00h  1
 248 -1.3588398e-01 3.69e+00 6.03e+02  -6.0 5.18e+03 -10.3 4.05e-01 2.68e-01h  1
Error in an AMPL evaluation. Run with "halt_on_ampl_error yes" to see details.
Warning: Cutting back alpha due to evaluation error
 249 -1.3588475e-01 3.67e+00 1.23e+03  -6.0 1.12e+01  -2.4 1.11e-02 5.73e-03h  2
iter    objective    inf_pr   inf_du lg(mu)  ||d||  lg(rg) alpha_du alpha_pr  ls
 250 -1.3588538e-01 3.64e+00 1.21e+03  -6.0 1.15e+01  -2.9 1.33e-02 9.91e-03h  1
 251 -1.3588715e-01 3.24e+00 1.11e+03  -6.0 1.20e+01  -3.4 2.42e-03 1.10e-01h  1
 252 -1.3588726e-01 3.24e+00 1.10e+03  -6.0 1.06e+01  -2.0 4.79e-02 2.24e-03h  1
 253 -1.3588747e-01 3.19e+00 1.09e+03  -6.0 1.05e+01  -2.5 2.38e-02 1.43e-02h  1
 254 -1.3588765e-01 3.09e+00 1.05e+03  -6.0 1.04e+01  -2.1 6.43e-02 3.01e-02h  1
 255 -1.3588692e-01 3.05e+00 1.04e+03  -6.0 1.01e+01  -1.7 4.62e-02 1.41e-02h  1
 256 -1.3588794e-01 2.92e+00 9.92e+02  -6.0 9.91e+00  -2.1 1.57e-02 4.40e-02h  1
 257 -1.3588661e-01 2.87e+00 9.76e+02  -6.0 9.56e+00  -1.7 1.74e-02 1.66e-02h  1
 258 -1.3588641e-01 2.83e+00 9.61e+02  -6.0 9.35e+00  -1.3 6.05e-02 1.44e-02h  1
 259 -1.3588558e-01 2.76e+00 9.39e+02  -6.0 9.22e+00  -0.9 7.68e-02 2.27e-02h  1
iter    objective    inf_pr   inf_du lg(mu)  ||d||  lg(rg) alpha_du alpha_pr  ls
 260 -1.3588349e-01 2.67e+00 9.09e+02  -6.0 9.07e+00  -1.3 9.53e-03 3.22e-02h  1
 261 -1.3588100e-01 2.66e+00 9.04e+02  -6.0 1.47e+01  -1.8 2.83e-03 5.79e-03h  1
 262 -1.3587955e-01 2.41e+00 8.18e+02  -6.0 8.70e+00  -1.4 2.47e-01 9.46e-02h  1
 263 -1.3585210e-01 3.18e-01 4.26e+02  -6.0 7.80e+00  -1.9 4.08e-01 1.00e+00h  1
 264 -1.3585881e-01 3.64e-04 4.82e+01  -6.0 3.27e-01  -2.4 6.83e-01 1.00e+00h  1
 265 -1.3586021e-01 4.41e-07 3.87e+00  -6.0 1.97e-02  -2.8 9.44e-01 1.00e+00h  1
 266 -1.3586317e-01 9.26e-06 1.34e+01  -6.0 6.79e-02  -3.3 2.46e-01 1.00e+00h  1
 267 -1.3587610e-01 6.18e-05 3.17e+00  -6.0 1.73e-01  -3.8 6.48e-01 1.00e+00h  1
 268 -1.3589235e-01 1.57e-04 3.49e+00  -6.0 3.73e-01  -4.3 1.00e+00 4.93e-01h  1
 269 -1.3591381e-01 3.03e-03 4.10e+00  -6.0 9.60e-01  -4.7 9.91e-01 4.68e-01f  1
iter    objective    inf_pr   inf_du lg(mu)  ||d||  lg(rg) alpha_du alpha_pr  ls
 270 -1.3599967e-01 1.14e-01 6.97e-01  -6.0 1.15e+00  -5.2 7.51e-01 1.00e+00f  1
 271 -1.3605436e-01 1.30e-01 2.71e+00  -6.0 4.33e+00  -5.7 1.00e+00 2.85e-01h  1
 272 -1.3615997e-01 2.90e-01 3.43e+00  -6.0 3.77e+00  -6.2 1.00e+00 4.00e-01h  1
 273 -1.3626178e-01 2.35e-01 1.32e+00  -6.0 2.81e+00  -6.6 1.00e+00 7.79e-01h  1
 274 -1.3632003e-01 3.23e-01 8.39e-01  -6.0 6.42e+00  -7.1 1.00e+00 1.00e+00h  1
 275 -1.3639129e-01 2.03e-01 4.56e-01  -6.0 1.81e+01  -7.6 1.00e+00 1.00e+00h  1
 276 -1.3646584e-01 4.43e-01 7.92e-01  -6.0 4.87e+01  -8.1 1.00e+00 1.00e+00h  1
 277 -1.3657131e-01 2.12e+00 3.54e+00  -6.0 1.25e+02  -8.6 1.00e+00 1.00e+00h  1
 278 -1.3659942e-01 1.91e+00 3.28e+00  -6.0 3.50e+02  -9.0 2.85e-01 2.20e-01h  1
 279 -1.3673033e-01 2.20e+00 8.86e+00  -6.0 8.52e+02  -9.5 5.65e-01 6.15e-01h  1
iter    objective    inf_pr   inf_du lg(mu)  ||d||  lg(rg) alpha_du alpha_pr  ls
 280 -1.3675504e-01 1.21e+00 9.69e+00  -6.0 3.75e+02 -10.0 8.09e-01 4.41e-01h  1
 281 -1.3674625e-01 2.11e+00 3.36e+00  -6.0 4.80e+02 -10.5 9.34e-01 1.00e+00h  1
 282 -1.3673652e-01 1.83e+00 1.35e+00  -6.0 4.09e+02 -10.0 8.86e-01 9.54e-01h  1
 283 -1.3671931e-01 2.57e+00 2.79e+00  -6.0 9.00e+02 -10.5 2.19e-01 3.92e-01h  1
 284 -1.3671712e-01 2.83e+00 8.32e+00  -6.0 1.94e+03 -11.0 8.38e-04 2.44e-02H  1
 285 -1.3671628e-01 3.18e+00 7.64e+00  -6.0 2.13e+05 -10.6 5.99e-04 8.29e-04f  5
 286 -1.3670899e-01 3.04e+00 3.95e+00  -6.0 1.19e+03 -11.0 3.55e-01 7.57e-02h  2
 287 -1.3669928e-01 2.48e+00 4.62e+00  -6.0 3.70e+02 -10.6 7.56e-01 2.06e-01h  1
 288 -1.3664923e-01 4.58e+00 3.99e+01  -6.0 1.56e+03 -11.1 3.35e-01 7.92e-01H  1
 289 -1.3663612e-01 4.51e+00 2.03e+01  -6.0 8.42e+02    -  7.13e-01 5.42e-01h  1
iter    objective    inf_pr   inf_du lg(mu)  ||d||  lg(rg) alpha_du alpha_pr  ls
 290 -1.3661934e-01 1.44e+00 5.76e-02  -6.0 3.50e+02    -  1.00e+00 1.00e+00h  1
 291 -1.3661754e-01 9.23e-01 4.91e-02  -6.0 2.83e+02    -  1.00e+00 1.00e+00h  1
 292 -1.3661773e-01 9.03e-05 3.35e-04  -6.0 1.87e+00    -  1.00e+00 1.00e+00h  1
 293 -1.3661773e-01 1.67e-09 4.40e-08  -6.0 1.20e-02    -  1.00e+00 1.00e+00h  1
 294 -1.3767406e-01 9.91e+00 7.45e+01  -7.5 4.16e+03    -  1.46e-01 3.29e-01f  1
 295 -1.3776475e-01 9.57e+00 4.91e+01  -7.5 9.61e+03    -  1.26e-01 3.84e-02h  1
 296 -1.3794156e-01 8.54e+00 7.40e+01  -7.5 2.67e+03 -10.7 3.88e-01 1.22e-01h  1
 297 -1.3820459e-01 6.39e+00 8.11e+01  -7.5 8.60e+02 -10.2 3.79e-01 2.85e-01h  1
 298 -1.3832242e-01 5.78e+00 7.36e+01  -7.5 1.50e+03 -10.7 1.41e-01 1.29e-01h  1
 299 -1.3856032e-01 4.47e+01 3.57e+01  -7.5 2.33e+03 -11.2 2.06e-01 2.77e-01h  1
iter    objective    inf_pr   inf_du lg(mu)  ||d||  lg(rg) alpha_du alpha_pr  ls
 300 -1.3861377e-01 4.19e+01 2.36e+01  -7.5 7.26e+03    -  1.95e-02 6.22e-02h  1
 301 -1.3868533e-01 3.69e+01 1.92e+01  -7.5 4.89e+03    -  7.37e-02 1.20e-01h  1
 302 -1.3872674e-01 3.38e+01 2.81e+01  -7.5 2.97e+03    -  1.62e-01 8.57e-02h  1
 303 -1.3881234e-01 2.75e+01 1.49e+01  -7.5 2.11e+03    -  1.42e-01 1.87e-01h  1
 304 -1.3882815e-01 2.67e+01 1.45e+01  -7.5 1.85e+02  -8.1 2.93e-02 2.92e-02h  1
 305 -1.3885537e-01 1.81e+01 1.73e+01  -7.5 3.39e+01  -8.5 3.52e-01 3.21e-01h  1
 306 -1.3887219e-01 1.34e+01 1.28e+01  -7.5 7.52e+01  -9.0 1.64e-01 2.61e-01h  1
 307 -1.3889147e-01 1.03e+01 5.70e+01  -7.5 1.92e+02  -9.5 8.61e-01 2.33e-01h  1
 308 -1.3895285e-01 4.53e+00 2.59e+01  -7.5 5.22e+02 -10.0 4.01e-01 5.61e-01h  1
 309 -1.3910115e-01 2.30e+01 1.76e+01  -7.5 2.99e+03    -  1.92e-01 4.38e-01h  1
iter    objective    inf_pr   inf_du lg(mu)  ||d||  lg(rg) alpha_du alpha_pr  ls
 310 -1.3915830e-01 2.58e+01 5.67e+01  -7.5 2.00e+03    -  3.37e-01 5.14e-01h  1
 311 -1.3920624e-01 3.58e+01 8.76e+01  -7.5 7.38e+03    -  1.13e-01 1.32e-01h  1
 312 -1.3920729e-01 3.55e+01 8.71e+01  -7.5 2.31e+03    -  5.97e-02 9.86e-03h  1
 313 -1.3928150e-01 6.05e+01 1.65e+03  -7.5 2.99e+03    -  4.78e-02 5.87e-01h  1
 314 -1.3927806e-01 5.66e+01 1.97e+03  -7.5 2.41e+03    -  3.30e-03 7.19e-02h  1
 315 -1.3928918e-01 5.57e+01 1.95e+03  -7.5 6.65e+03    -  2.63e-01 5.72e-02h  1
 316 -1.3934547e-01 5.84e+01 2.44e+03  -7.5 1.87e+03    -  1.93e-01 1.00e+00h  1
 317 -1.3934591e-01 5.54e+01 2.31e+03  -7.5 1.41e+01  -6.8 8.67e-03 5.12e-02h  1
 318 -1.3934672e-01 5.34e+01 2.23e+03  -7.5 1.62e+01  -7.3 9.40e-02 3.67e-02h  1
 319 -1.3934688e-01 5.33e+01 2.22e+03  -7.5 2.19e+03    -  5.31e-02 1.04e-03h  1
iter    objective    inf_pr   inf_du lg(mu)  ||d||  lg(rg) alpha_du alpha_pr  ls
 320 -1.3936065e-01 4.62e+01 1.79e+03  -7.5 2.27e+03    -  1.19e-01 2.17e-01f  1
 321 -1.3936588e-01 4.03e+01 1.55e+03  -7.5 1.11e+03    -  5.97e-01 1.38e-01h  1
 322 -1.3939430e-01 3.47e+01 8.55e+02  -7.5 1.72e+03    -  2.26e-01 5.40e-01h  1
 323 -1.3939494e-01 2.98e+01 9.76e+02  -7.5 1.89e+01  -7.8 1.61e-02 1.41e-01h  1
 324 -1.3939686e-01 5.65e-02 4.53e+01  -7.5 1.27e+01  -8.3 9.66e-02 1.00e+00h  1
 325 -1.3939643e-01 6.38e-03 2.81e-01  -7.5 1.07e+01  -8.7 1.00e+00 1.00e+00h  1
 326 -1.3939629e-01 3.05e-04 2.85e-01  -7.5 2.70e+01  -9.2 8.83e-01 1.00e+00H  1
 327 -1.3939930e-01 2.79e-01 6.01e-01  -7.5 8.38e+01  -9.7 1.00e+00 1.00e+00h  1
 328 -1.3940869e-01 1.30e+00 6.08e+00  -7.5 2.61e+02 -10.2 1.00e+00 1.00e+00h  1
 329 -1.3943187e-01 7.73e+00 3.86e+01  -7.5 9.15e+02 -10.7 7.00e-01 6.72e-01h  1
iter    objective    inf_pr   inf_du lg(mu)  ||d||  lg(rg) alpha_du alpha_pr  ls
 330 -1.3942067e-01 1.88e+00 9.85e+00  -7.5 3.14e+02    -  8.44e-01 1.00e+00h  1
 331 -1.3942675e-01 5.01e+00 1.98e+01  -7.5 5.20e+04    -  3.61e-02 7.69e-03h  3
 332 -1.3945657e-01 5.01e+01 3.13e+02  -7.5 2.91e+03    -  1.15e-01 5.31e-01h  1
 333 -1.3945672e-01 4.87e+00 5.30e+01  -7.5 5.20e+02    -  1.00e+00 1.00e+00h  1
 334 -1.3949345e-01 4.36e+01 3.86e+02  -7.5 1.89e+04 -11.1 4.63e-02 8.09e-02h  1
 335 -1.3950483e-01 4.13e+01 3.34e+02  -7.5 5.58e+03    -  4.03e-02 6.36e-02h  1
 336 -1.3953581e-01 3.66e+01 5.22e+02  -7.5 2.33e+03    -  8.72e-03 2.69e-01f  1
 337 -1.3954413e-01 3.68e+01 5.39e+02  -7.5 2.90e+04    -  1.44e-03 4.95e-03h  1
 338 -1.3954991e-01 3.70e+01 8.93e+03  -7.5 2.38e+05 -10.7 8.70e-03 3.93e-04h  1
 339 -1.3955102e-01 3.67e+01 7.97e+03  -7.5 2.03e+03    -  9.19e-02 8.19e-03h  1
iter    objective    inf_pr   inf_du lg(mu)  ||d||  lg(rg) alpha_du alpha_pr  ls
 340 -1.3955526e-01 3.57e+01 5.99e+03  -7.5 3.77e+03    -  2.14e-01 2.84e-02h  1
 341 -1.3956146e-01 3.49e+01 2.92e+06  -7.5 1.48e+04    -  5.79e-05 2.43e-02h  1
 342 -1.3963212e-01 2.94e+01 2.05e+06  -7.5 1.66e+03    -  5.95e-03 2.97e-01h  1
 343 -1.3973391e-01 4.03e+01 3.16e+05  -7.5 1.60e+03    -  3.45e-03 8.45e-01h  1
 344 -1.3973724e-01 4.01e+01 3.15e+05  -7.5 7.91e+03    -  3.03e-02 5.48e-03h  1
 345 -1.3977016e-01 3.53e+01 2.69e+05  -7.5 2.07e+03    -  6.83e-02 1.45e-01h  1
 346 -1.3977914e-01 3.43e+01 2.60e+05  -7.5 1.69e+03    -  6.07e-02 3.22e-02h  1
 347 -1.3978051e-01 3.41e+01 2.59e+05  -7.5 1.47e+03    -  7.02e-02 5.48e-03h  1
 348 -1.3978350e-01 3.39e+01 2.58e+05  -7.5 1.54e+04    -  1.60e-03 4.36e-03h  1
 349 -1.3978192e-01 3.14e+00 1.01e+04  -7.5 3.53e+02    -  1.52e-02 1.00e+00h  1
iter    objective    inf_pr   inf_du lg(mu)  ||d||  lg(rg) alpha_du alpha_pr  ls
 350 -1.3983295e-01 1.78e+00 5.58e+03  -7.5 2.75e+02    -  7.36e-01 4.30e-01h  1
 351 -1.3979405e-01 1.47e+00 9.66e+02  -7.5 2.95e+02    -  7.06e-01 8.34e-01h  1
 352 -1.3980872e-01 1.80e-01 6.25e+01  -7.5 9.49e+01    -  3.18e-04 1.00e+00h  1
 353 -1.3981748e-01 1.91e-02 4.14e-01  -7.5 2.95e+01    -  1.00e+00 1.00e+00h  1
 354 -1.3985044e-01 2.83e-01 6.67e+00  -7.5 1.72e+02    -  5.53e-01 6.56e-01h  1
 355 -1.3985097e-01 3.12e-01 8.03e+00  -7.5 1.49e+02    -  2.55e-01 6.70e-01h  1
 356 -1.3984394e-01 3.52e-02 7.77e-01  -7.5 4.02e+01    -  1.00e+00 1.00e+00h  1
 357 -1.3984333e-01 4.83e-03 1.11e-01  -7.5 1.48e+01    -  1.00e+00 1.00e+00h  1
 358 -1.3984327e-01 6.89e-06 1.85e-04  -7.5 5.64e-01    -  1.00e+00 1.00e+00h  1
 359 -1.3984327e-01 2.64e-10 6.39e-09  -7.5 3.31e-03    -  1.00e+00 1.00e+00h  1
iter    objective    inf_pr   inf_du lg(mu)  ||d||  lg(rg) alpha_du alpha_pr  ls
 360 -1.3984771e-01 1.37e+00 3.24e+00  -9.0 5.57e+02    -  7.33e-01 4.58e-01h  1
 361 -1.3984966e-01 1.30e+01 3.11e+00  -9.0 8.82e+02    -  9.09e-01 8.80e-01h  1
 362 -1.3985044e-01 3.40e+01 2.72e+00  -9.0 7.92e+03    -  2.14e-01 1.27e-01h  1
 363 -1.3985036e-01 3.07e+01 2.40e+00  -9.0 1.28e+03    -  9.55e-04 1.15e-01h  1
 364 -1.3984893e-01 8.04e-01 6.28e-01  -9.0 1.29e+02    -  1.06e-02 9.81e-01h  1
 365 -1.3984951e-01 2.92e+00 8.14e-02  -9.0 3.50e+02    -  8.42e-01 1.00e+00h  1
 366 -1.3984936e-01 6.53e-01 5.24e-03  -9.0 1.70e+02    -  9.01e-01 1.00e+00h  1
 367 -1.3984937e-01 3.15e-02 5.17e-05  -9.0 3.75e+01    -  1.00e+00 1.00e+00h  1
 368 -1.3984937e-01 3.65e-05 6.06e-08  -9.0 1.29e+00    -  1.00e+00 1.00e+00h  1
 369 -1.3984937e-01 3.05e-10 8.98e-14  -9.0 1.49e-03    -  1.00e+00 1.00e+00h  1

Number of Iterations....: 369

                                   (scaled)                 (unscaled)
Objective...............:  -1.3984936848574181e-01   -1.3984936848574181e-01
Dual infeasibility......:   8.9817042692175164e-14    8.9817042692175164e-14
Constraint violation....:   3.0548435113984806e-10    3.0548435113984806e-10
Complementarity.........:   9.0909090933831365e-10    9.0909090933831365e-10
Overall NLP error.......:   9.0909090933831365e-10    9.0909090933831365e-10


Number of objective function evaluations             = 800
Number of objective gradient evaluations             = 370
Number of equality constraint evaluations            = 801
Number of inequality constraint evaluations          = 801
Number of equality constraint Jacobian evaluations   = 379
Number of inequality constraint Jacobian evaluations = 379
Number of Lagrangian Hessian evaluations             = 369
Total CPU secs in IPOPT (w/o function evaluations)   =    185.101
Total CPU secs in NLP function evaluations           =      7.006

EXIT: Optimal Solution Found.
